NAME : morphed18-2-15
COMMENT : Generated using the function morphInstances from the R-package netgen (Bossek,2015) - Number of clusters: 2 Alpha: 0.5
TYPE : TSP
DIMENSION : 18
EDGE_WEIGHT_TYPE : EUC_2D
NODE_COORD_SECTION
1 69.8721172119 32.1511420884
2 17.8138024871 81.5937938959
3 68.4113180596 89.4423071504
4 56.3012945837 86.173774927
5 31.3896087155 63.8745763149
6 96.9578724343 25.4124798625
7 79.8097602182 59.1963164227
8 25.5285004584 75.7787264571
9 78.0743799432 26.6052150464
10 84.9615170256 23.4566864428
11 17.5105064608 95.1794451956
12 55.2569729433 67.649295179
13 43.4997827485 71.1957015778
14 79.8377192888 37.387082022
15 87.3831685942 50.7998963924
16 88.3628862961 28.7280278233
17 35.9071437711 72.5673533937
18 94.1310060938 57.9315266552
EOF
